NAME : 50-5-1-i.28384.tour
COMMENT : Length = 28384
COMMENT : Found by LKH-3 [Keld Helsgaun] Tue Dec 17 14:06:59 2024
TYPE : TOUR
DIMENSION : 60
TOUR_SECTION
1
19
56
2
57
3
47
45
29
38
11
18
23
43
26
53
6
42
35
50
25
13
28
36
49
27
33
10
52
55
22
8
44
39
21
7
24
31
46
20
9
40
14
30
15
17
16
48
54
51
12
37
41
34
32
58
4
59
5
60
-1
EOF
